2313 2111
5410 2165
4832 2158
4263 5247
5776 5978
6359 3400
7405 4314
4530 3156
1939 9966
2155 7641
5323 2822
1869 8815
4717 3195
4007 5229
2912 1615
4366 225
8289 8391
6934 1983
9942 7863
1003 804
5691 8041
7485 5264
6806 7096
2835 3494
5825 3544
743 1659
7776 1395
7781 2858
4071 5904
2618 2336
1811 1371
4899 9547
6472 1167
7916 4239
5096 7306
4849 1330
6482 6336
1381 1347
6917 4366
9944 719
503 9184
7332 7028
1918 2994
2711 5025
8182 2786
6352 2184
2234 6397
5939 3613
3255 6458
6586 7110
